46 7
10 18 22 42 21 12 45 11 4 6 0 16 28 41 35 32 30 29 0 46 7 44 27 14 15 24 0 2 17 36 19 26 40 37 0 5 31 3 38 39 0 8 23 33 0 20 9 34 25 43 13 

1105

Route #1: 10 18 22 42 21 12 45 11 4 6 
Route #2: 16 28 41 35 32 30 29 
Route #3: 46 7 44 27 14 15 24 
Route #4: 2 17 36 19 26 40 37 
Route #5: 5 31 3 38 39 
Route #6: 8 23 33 
Route #7: 20 9 34 25 43 13 